p cnf 52 147
a 42 35 0
e 1 2 3 4 5 6 7 8 9 10 11 12 13 14 15 16 17 18 19 20 21 22 23 24 25 26 27 28 29 30 31 32 33 34 36 37 38 39 40 41 43 44 45 46 47 48 49 50 51 52 0
3 1 0
3 2 0
-1 -2 -3 0
6 -4 0
6 -5 0
4 5 -6 0
-7 6 0
-7 4 0
-6 -4 7 0
7 -4 -8 0
-7 4 -8 0
7 4 8 0
-7 -4 8 0
-10 -9 0
-10 6 0
9 -6 10 0
11 8 0
11 -10 0
-8 10 -11 0
-12 -11 0
-12 10 0
11 -10 12 0
-14 13 0
-14 -2 0
-13 2 14 0
12 14 -15 0
-12 -14 -15 0
12 -14 15 0
-12 14 15 0
16 -3 0
16 -15 0
3 15 -16 0
-10 -18 0
10 -18 0
-19 17 0
-19 -18 0
-17 18 19 0
19 -20 -21 0
-19 20 -21 0
19 20 21 0
-19 -20 21 0
23 -9 0
23 22 0
9 -22 -23 0
-24 10 0
-24 10 0
-10 24 0
-25 -23 0
-25 -24 0
23 24 25 0
-7 26 0
7 26 0
27 -26 0
27 19 0
26 -19 -27 0
-28 25 0
-28 -27 0
-25 27 28 0
-29 -21 0
-29 28 0
21 -28 29 0
-30 16 0
-30 29 0
-16 -29 30 0
-31 22 0
-31 2 0
-22 -2 31 0
32 4 0
32 -20 0
-4 20 -32 0
33 -5 0
33 32 0
5 -32 -33 0
-22 -33 -34 0
22 33 -34 0
-22 33 34 0
22 -33 34 0
31 -34 -35 0
-31 34 -35 0
31 34 35 0
-31 -34 35 0
36 -6 0
36 -13 0
6 13 -36 0
-22 14 -37 0
22 -14 -37 0
-22 -14 37 0
22 14 37 0
38 19 0
38 32 0
-19 -32 -38 0
-39 -8 0
-39 -38 0
8 38 39 0
-40 37 0
-40 -39 0
-37 39 40 0
-41 -26 0
-41 -2 0
26 2 41 0
-42 40 0
-42 -41 0
-40 41 42 0
43 -36 0
43 -42 0
36 42 -43 0
35 43 -44 0
-35 -43 -44 0
35 -43 44 0
-35 43 44 0
-30 -44 -45 0
30 44 -45 0
-30 44 45 0
30 -44 45 0
-46 22 0
-46 -11 0
-22 11 46 0
-48 -47 0
-48 7 0
47 -7 48 0
46 -48 -49 0
-46 48 -49 0
46 48 49 0
-46 -48 49 0
-50 -1 0
-50 -14 0
1 14 50 0
-51 49 0
-51 -50 0
-49 50 51 0
52 -45 0
52 -51 0
45 51 -52 0
11 6 -21 37 0
-46 -19 36 -14 39 38 -23 0
2 -1 -34 0
45 33 -42 0
10 27 15 7 -48 28 22 0
26 35 -25 32 -49 31 0
31 52 25 27 6 -36 0
-49 33 -38 -28 -15 -39 0
-44 -46 -26 50 -47 -2 -3 0
20 15 -43 50 9 4 0
-21 52 18 -11 42 0
39 -16 -38 -41 26 -37 51 35 0
21 -31 9 0
52 0
